p cnf 197 801
1 2 3 4 5 6 7 8 9 10 11 12 13 14 15 16 17 18 19 0
20 21 22 23 24 25 26 27 28 29 30 31 32 33 34 35 36 37 38 0
60 61 62 63 64 65 66 67 68 69 70 71 72 73 74 75 76 77 78 0
79 80 81 82 83 84 85 86 87 88 89 90 91 92 93 94 95 96 97 98 0
116 117 118 119 120 121 122 123 124 125 126 127 128 129 130 131 132 133 0
134 135 136 137 138 139 140 141 142 143 144 145 146 147 148 149 150 151 152 153 154 0
155 156 157 158 159 160 161 162 163 164 165 166 167 168 169 170 171 172 173 174 175 0
176 177 178 179 180 181 182 183 184 185 186 187 188 189 190 191 192 193 194 195 196 197 0
-1 -20 0
-1 -39 0
-1 -60 0
-1 -79 0
-1 -116 0
-1 -134 0
-1 -155 0
-1 -176 0
-20 -39 0
-20 -60 0
-20 -79 0
-20 -116 0
-20 -134 0
-20 -155 0
-20 -176 0
-39 -60 0
-39 -79 0
-39 -116 0
-39 -134 0
-39 -155 0
-39 -176 0
-60 -79 0
-60 -116 0
-60 -134 0
-60 -155 0
-60 -176 0
-79 -116 0
-79 -134 0
-79 -155 0
-79 -176 0
-116 -134 0
-116 -155 0
-116 -176 0
-134 -155 0
-134 -176 0
-155 -176 0
-2 -21 0
-2 -40 0
-2 -61 0
-2 -80 0
-2 -99 0
-2 -117 0
-2 -135 0
-2 -156 0
-2 -177 0
-21 -40 0
-21 -61 0
-21 -80 0
-21 -99 0
-21 -117 0
-21 -135 0
-21 -156 0
-21 -177 0
-40 -61 0
-40 -80 0
-40 -99 0
-40 -117 0
-40 -135 0
-40 -156 0
-40 -177 0
-61 -80 0
-61 -99 0
-61 -117 0
-61 -135 0
-61 -156 0
-61 -177 0
-80 -99 0
-80 -117 0
-80 -135 0
-80 -156 0
-80 -177 0
-99 -117 0
-99 -135 0
-99 -156 0
-99 -177 0
-117 -135 0
-117 -156 0
-117 -177 0
-135 -156 0
-135 -177 0
-156 -177 0
-3 -22 0
-3 -41 0
-3 -62 0
-3 -81 0
-3 -100 0
-3 -118 0
-3 -136 0
-3 -157 0
-3 -178 0
-22 -41 0
-22 -62 0
-22 -81 0
-22 -100 0
-22 -118 0
-22 -136 0
-22 -157 0
-22 -178 0
-41 -62 0
-41 -81 0
-41 -100 0
-41 -118 0
-41 -136 0
-41 -157 0
-41 -178 0
-62 -81 0
-62 -100 0
-62 -118 0
-62 -136 0
-62 -157 0
-62 -178 0
-81 -100 0
-81 -118 0
-81 -136 0
-81 -157 0
-81 -178 0
-100 -118 0
-100 -136 0
-100 -157 0
-100 -178 0
-118 -136 0
-118 -157 0
-118 -178 0
-136 -157 0
-136 -178 0
-157 -178 0
-4 -23 0
-4 -42 0
-4 -82 0
-4 -101 0
-4 -119 0
-4 -137 0
-4 -158 0
-4 -179 0
-23 -42 0
-23 -82 0
-23 -101 0
-23 -119 0
-23 -137 0
-23 -158 0
-23 -179 0
-42 -82 0
-42 -101 0
-42 -119 0
-42 -137 0
-42 -158 0
-42 -179 0
-82 -101 0
-82 -119 0
-82 -137 0
-82 -158 0
-82 -179 0
-101 -119 0
-101 -137 0
-101 -158 0
-101 -179 0
-119 -137 0
-119 -158 0
-119 -179 0
-137 -158 0
-137 -179 0
-158 -179 0
-5 -24 0
-5 -43 0
-5 -63 0
-5 -83 0
-5 -102 0
-5 -120 0
-5 -138 0
-5 -159 0
-5 -180 0
-24 -43 0
-24 -63 0
-24 -83 0
-24 -102 0
-24 -120 0
-24 -138 0
-24 -159 0
-24 -180 0
-43 -63 0
-43 -83 0
-43 -102 0
-43 -120 0
-43 -138 0
-43 -159 0
-43 -180 0
-63 -83 0
-63 -102 0
-63 -120 0
-63 -138 0
-63 -159 0
-63 -180 0
-83 -102 0
-83 -120 0
-83 -138 0
-83 -159 0
-83 -180 0
-102 -120 0
-102 -138 0
-102 -159 0
-102 -180 0
-120 -138 0
-120 -159 0
-120 -180 0
-138 -159 0
-138 -180 0
-159 -180 0
-6 -25 0
-6 -44 0
-6 -64 0
-6 -84 0
-6 -103 0
-6 -121 0
-6 -139 0
-6 -160 0
-6 -181 0
-25 -44 0
-25 -64 0
-25 -84 0
-25 -103 0
-25 -121 0
-25 -139 0
-25 -160 0
-25 -181 0
-44 -64 0
-44 -84 0
-44 -103 0
-44 -121 0
-44 -139 0
-44 -160 0
-44 -181 0
-64 -84 0
-64 -103 0
-64 -121 0
-64 -139 0
-64 -160 0
-64 -181 0
-84 -103 0
-84 -121 0
-84 -139 0
-84 -160 0
-84 -181 0
-103 -121 0
-103 -139 0
-103 -160 0
-103 -181 0
-121 -139 0
-121 -160 0
-121 -181 0
-139 -160 0
-139 -181 0
-160 -181 0
-26 -45 0
-26 -85 0
-26 -104 0
-26 -122 0
-26 -140 0
-26 -161 0
-26 -182 0
-45 -85 0
-45 -104 0
-45 -122 0
-45 -140 0
-45 -161 0
-45 -182 0
-85 -104 0
-85 -122 0
-85 -140 0
-85 -161 0
-85 -182 0
-104 -122 0
-104 -140 0
-104 -161 0
-104 -182 0
-122 -140 0
-122 -161 0
-122 -182 0
-140 -161 0
-140 -182 0
-161 -182 0
-7 -46 0
-7 -65 0
-7 -86 0
-7 -105 0
-7 -123 0
-7 -141 0
-7 -162 0
-7 -183 0
-46 -65 0
-46 -86 0
-46 -105 0
-46 -123 0
-46 -141 0
-46 -162 0
-46 -183 0
-65 -86 0
-65 -105 0
-65 -123 0
-65 -141 0
-65 -162 0
-65 -183 0
-86 -105 0
-86 -123 0
-86 -141 0
-86 -162 0
-86 -183 0
-105 -123 0
-105 -141 0
-105 -162 0
-105 -183 0
-123 -141 0
-123 -162 0
-123 -183 0
-141 -162 0
-141 -183 0
-162 -183 0
-8 -27 0
-8 -47 0
-8 -66 0
-8 -87 0
-8 -106 0
-8 -142 0
-8 -163 0
-8 -184 0
-27 -47 0
-27 -66 0
-27 -87 0
-27 -106 0
-27 -142 0
-27 -163 0
-27 -184 0
-47 -66 0
-47 -87 0
-47 -106 0
-47 -142 0
-47 -163 0
-47 -184 0
-66 -87 0
-66 -106 0
-66 -142 0
-66 -163 0
-66 -184 0
-87 -106 0
-87 -142 0
-87 -163 0
-87 -184 0
-106 -142 0
-106 -163 0
-106 -184 0
-142 -163 0
-142 -184 0
-163 -184 0
-9 -28 0
-9 -48 0
-9 -67 0
-9 -88 0
-9 -107 0
-9 -124 0
-9 -143 0
-9 -164 0
-9 -185 0
-28 -48 0
-28 -67 0
-28 -88 0
-28 -107 0
-28 -124 0
-28 -143 0
-28 -164 0
-28 -185 0
-48 -67 0
-48 -88 0
-48 -107 0
-48 -124 0
-48 -143 0
-48 -164 0
-48 -185 0
-67 -88 0
-67 -107 0
-67 -124 0
-67 -143 0
-67 -164 0
-67 -185 0
-88 -107 0
-88 -124 0
-88 -143 0
-88 -164 0
-88 -185 0
-107 -124 0
-107 -143 0
-107 -164 0
-107 -185 0
-124 -143 0
-124 -164 0
-124 -185 0
-143 -164 0
-143 -185 0
-164 -185 0
-10 -29 0
-10 -49 0
-10 -68 0
-10 -125 0
-10 -144 0
-10 -165 0
-10 -186 0
-29 -49 0
-29 -68 0
-29 -125 0
-29 -144 0
-29 -165 0
-29 -186 0
-49 -68 0
-49 -125 0
-49 -144 0
-49 -165 0
-49 -186 0
-68 -125 0
-68 -144 0
-68 -165 0
-68 -186 0
-125 -144 0
-125 -165 0
-125 -186 0
-144 -165 0
-144 -186 0
-165 -186 0
-11 -69 0
-11 -89 0
-11 -126 0
-11 -145 0
-11 -166 0
-11 -187 0
-69 -89 0
-69 -126 0
-69 -145 0
-69 -166 0
-69 -187 0
-89 -126 0
-89 -145 0
-89 -166 0
-89 -187 0
-126 -145 0
-126 -166 0
-126 -187 0
-145 -166 0
-145 -187 0
-166 -187 0
-12 -50 0
-12 -90 0
-12 -108 0
-12 -146 0
-12 -167 0
-12 -188 0
-50 -90 0
-50 -108 0
-50 -146 0
-50 -167 0
-50 -188 0
-90 -108 0
-90 -146 0
-90 -167 0
-90 -188 0
-108 -146 0
-108 -167 0
-108 -188 0
-146 -167 0
-146 -188 0
-167 -188 0
-13 -30 0
-13 -51 0
-13 -70 0
-13 -127 0
-13 -147 0
-13 -168 0
-13 -189 0
-30 -51 0
-30 -70 0
-30 -127 0
-30 -147 0
-30 -168 0
-30 -189 0
-51 -70 0
-51 -127 0
-51 -147 0
-51 -168 0
-51 -189 0
-70 -127 0
-70 -147 0
-70 -168 0
-70 -189 0
-127 -147 0
-127 -168 0
-127 -189 0
-147 -168 0
-147 -189 0
-168 -189 0
-14 -31 0
-14 -52 0
-14 -71 0
-14 -91 0
-14 -109 0
-14 -128 0
-14 -169 0
-14 -190 0
-31 -52 0
-31 -71 0
-31 -91 0
-31 -109 0
-31 -128 0
-31 -169 0
-31 -190 0
-52 -71 0
-52 -91 0
-52 -109 0
-52 -128 0
-52 -169 0
-52 -190 0
-71 -91 0
-71 -109 0
-71 -128 0
-71 -169 0
-71 -190 0
-91 -109 0
-91 -128 0
-91 -169 0
-91 -190 0
-109 -128 0
-109 -169 0
-109 -190 0
-128 -169 0
-128 -190 0
-169 -190 0
-15 -32 0
-15 -53 0
-15 -72 0
-15 -92 0
-15 -110 0
-15 -129 0
-15 -148 0
-15 -170 0
-15 -191 0
-32 -53 0
-32 -72 0
-32 -92 0
-32 -110 0
-32 -129 0
-32 -148 0
-32 -170 0
-32 -191 0
-53 -72 0
-53 -92 0
-53 -110 0
-53 -129 0
-53 -148 0
-53 -170 0
-53 -191 0
-72 -92 0
-72 -110 0
-72 -129 0
-72 -148 0
-72 -170 0
-72 -191 0
-92 -110 0
-92 -129 0
-92 -148 0
-92 -170 0
-92 -191 0
-110 -129 0
-110 -148 0
-110 -170 0
-110 -191 0
-129 -148 0
-129 -170 0
-129 -191 0
-148 -170 0
-148 -191 0
-170 -191 0
-16 -33 0
-16 -54 0
-16 -73 0
-16 -93 0
-16 -111 0
-16 -149 0
-16 -171 0
-16 -192 0
-33 -54 0
-33 -73 0
-33 -93 0
-33 -111 0
-33 -149 0
-33 -171 0
-33 -192 0
-54 -73 0
-54 -93 0
-54 -111 0
-54 -149 0
-54 -171 0
-54 -192 0
-73 -93 0
-73 -111 0
-73 -149 0
-73 -171 0
-73 -192 0
-93 -111 0
-93 -149 0
-93 -171 0
-93 -192 0
-111 -149 0
-111 -171 0
-111 -192 0
-149 -171 0
-149 -192 0
-171 -192 0
-34 -55 0
-34 -74 0
-34 -94 0
-34 -112 0
-34 -130 0
-34 -150 0
-34 -172 0
-34 -193 0
-55 -74 0
-55 -94 0
-55 -112 0
-55 -130 0
-55 -150 0
-55 -172 0
-55 -193 0
-74 -94 0
-74 -112 0
-74 -130 0
-74 -150 0
-74 -172 0
-74 -193 0
-94 -112 0
-94 -130 0
-94 -150 0
-94 -172 0
-94 -193 0
-112 -130 0
-112 -150 0
-112 -172 0
-112 -193 0
-130 -150 0
-130 -172 0
-130 -193 0
-150 -172 0
-150 -193 0
-172 -193 0
-35 -56 0
-35 -75 0
-35 -95 0
-35 -113 0
-35 -131 0
-35 -151 0
-35 -173 0
-35 -194 0
-56 -75 0
-56 -95 0
-56 -113 0
-56 -131 0
-56 -151 0
-56 -173 0
-56 -194 0
-75 -95 0
-75 -113 0
-75 -131 0
-75 -151 0
-75 -173 0
-75 -194 0
-95 -113 0
-95 -131 0
-95 -151 0
-95 -173 0
-95 -194 0
-113 -131 0
-113 -151 0
-113 -173 0
-113 -194 0
-131 -151 0
-131 -173 0
-131 -194 0
-151 -173 0
-151 -194 0
-173 -194 0
-17 -36 0
-17 -57 0
-17 -76 0
-17 -96 0
-17 -114 0
-17 -152 0
-17 -195 0
-36 -57 0
-36 -76 0
-36 -96 0
-36 -114 0
-36 -152 0
-36 -195 0
-57 -76 0
-57 -96 0
-57 -114 0
-57 -152 0
-57 -195 0
-76 -96 0
-76 -114 0
-76 -152 0
-76 -195 0
-96 -114 0
-96 -152 0
-96 -195 0
-114 -152 0
-114 -195 0
-152 -195 0
-18 -37 0
-18 -58 0
-18 -77 0
-18 -97 0
-18 -115 0
-18 -132 0
-18 -153 0
-18 -174 0
-18 -196 0
-37 -58 0
-37 -77 0
-37 -97 0
-37 -115 0
-37 -132 0
-37 -153 0
-37 -174 0
-37 -196 0
-58 -77 0
-58 -97 0
-58 -115 0
-58 -132 0
-58 -153 0
-58 -174 0
-58 -196 0
-77 -97 0
-77 -115 0
-77 -132 0
-77 -153 0
-77 -174 0
-77 -196 0
-97 -115 0
-97 -132 0
-97 -153 0
-97 -174 0
-97 -196 0
-115 -132 0
-115 -153 0
-115 -174 0
-115 -196 0
-132 -153 0
-132 -174 0
-132 -196 0
-153 -174 0
-153 -196 0
-174 -196 0
-19 -38 0
-19 -59 0
-19 -78 0
-19 -98 0
-19 -133 0
-19 -154 0
-19 -175 0
-19 -197 0
-38 -59 0
-38 -78 0
-38 -98 0
-38 -133 0
-38 -154 0
-38 -175 0
-38 -197 0
-59 -78 0
-59 -98 0
-59 -133 0
-59 -154 0
-59 -175 0
-59 -197 0
-78 -98 0
-78 -133 0
-78 -154 0
-78 -175 0
-78 -197 0
-98 -133 0
-98 -154 0
-98 -175 0
-98 -197 0
-133 -154 0
-133 -175 0
-133 -197 0
-154 -175 0
-154 -197 0
-175 -197 0
